NAME : CMT1X
TYPE : MVRPB
DIMENSION : 51
VEHICLES : 3
CAPACITY : 16000
EDGE_WEIGHT_TYPE : EXACT_2D
NODE_COORD_SECTION
1 30 40
2 37 52
3 49 49
4 52 64
5 20 26
6 40 30
7 21 47
8 17 63
9 31 62
10 52 33
11 51 21
12 42 41
13 31 32
14 5 25
15 12 42
16 36 16
17 52 41
18 27 23
19 17 33
20 13 13
21 57 58
22 62 42
23 42 57
24 16 57
25 8 52
26 7 38
27 27 68
28 30 48
29 43 67
30 58 48
31 58 27
32 37 69
33 38 46
34 46 10
35 61 33
36 62 63
37 63 69
38 32 22
39 45 35
40 59 15
41 5 6
42 10 17
43 21 10
44 5 64
45 30 15
46 39 10
47 32 39
48 25 32
49 25 55
50 48 28
51 56 37
PICKUP_AND_DELIVERY_SECTION
1 0 0 10000000 0 0 0
2 0 0 10000000 0 202 498
3 0 0 10000000 0 0 3000
4 0 0 10000000 0 300 1300
5 0 0 10000000 0 208 692
6 0 0 10000000 0 525 1575
7 0 0 10000000 0 830 670
8 0 0 10000000 0 1387 513
9 0 0 10000000 0 1150 1150
10 0 0 10000000 0 402 698
11 0 0 10000000 0 294 206
12 0 0 10000000 0 45 1855
13 0 0 10000000 0 91 2809
14 0 0 10000000 0 1840 460
15 0 0 10000000 0 1500 600
16 0 0 10000000 0 556 444
17 0 0 10000000 0 317 1183
18 0 0 10000000 0 44 256
19 0 0 10000000 0 1988 2112
20 0 0 10000000 0 0 900
21 0 0 10000000 0 48 2752
22 0 0 10000000 0 258 542
23 0 0 10000000 0 211 589
24 0 0 10000000 0 1151 449
25 0 0 10000000 0 846 154
26 0 0 10000000 0 2284 516
27 0 0 10000000 0 422 278
28 0 0 10000000 0 563 938
29 0 0 10000000 0 501 899
30 0 0 10000000 0 103 497
31 0 0 10000000 0 1016 884
32 0 0 10000000 0 510 590
33 0 0 10000000 0 209 991
34 0 0 10000000 0 1800 500
35 0 0 10000000 0 1193 1407
36 0 0 10000000 0 27 1673
37 0 0 10000000 0 52 548
38 0 0 10000000 0 281 619
39 0 0 10000000 0 333 1167
40 0 0 10000000 0 1044 356
41 0 0 10000000 0 117 583
42 0 0 10000000 0 1112 1588
43 0 0 10000000 0 681 619
44 0 0 10000000 0 1014 86
45 0 0 10000000 0 800 800
46 0 0 10000000 0 744 256
47 0 0 10000000 0 90 410
48 0 0 10000000 0 547 1953
49 0 0 10000000 0 927 773
50 0 0 10000000 0 750 1050
51 0 0 10000000 0 339 661
DEPOT_SECTION
1 
-1
EOF
